1405947
2 28 6275
28 29 52270
29 4 53285
4 9 8395
9 18 9870
18 25 7368
25 13 1644
13 5 6994
5 14 14272
14 16 22658
16 11 17050
11 26 13666
26 22 11584
22 19 8375
19 20 59143
20 1 190821
1 24 54636
24 17 276644
17 10 52694
10 12 116497
12 8 61690
8 27 98591
27 7 7370
7 3 5029
3 23 112203
23 21 92634
21 15 19591
15 6 10550
6 30 7944
30 2 6204
